(set-logic HORN)
(declare-fun inv ((_ BitVec 32) (_ BitVec 32) (_ BitVec 32) (_ BitVec 32) ) Bool)
(assert (forall ((i (_ BitVec 32)) (j (_ BitVec 32)) (n (_ BitVec 32)) (k (_ BitVec 32))) 
       (=> ( and ( or ( = n (_ bv1 32) ) ( = n (_ bv2 32) ) ) ( = i (_ bv0 32) ) ( = j (_ bv0 32) ) ) (inv i j n k))))
(assert (forall ((i (_ BitVec 32)) (j (_ BitVec 32)) (n (_ BitVec 32)) (k (_ BitVec 32)) (i! (_ BitVec 32)) (j! (_ BitVec 32)) (n! (_ BitVec 32)) (k! (_ BitVec 32))) 
       (=> (and (inv i j n k) ( or ( and ( bvsgt i k ) ( = i! i ) ( = j! j ) ( = n! n ) ( = k! k ) ) ( and ( bvsle i k ) ( = i! ( bvadd i (_ bv1 32) ) ) ( = j! ( bvadd j n ) ) ( = n! n ) ( = k! k ) ) )) (inv i! j! n! k!))))
(assert (forall ((i (_ BitVec 32)) (j (_ BitVec 32)) (n (_ BitVec 32)) (k (_ BitVec 32))) 
       (=> (inv i j n k) ( => ( bvsgt i k ) ( or ( not ( = n (_ bv1 32) ) ) ( = i j ) ) ))))
(check-sat)
